Route #1: 31 46 35
Route #2: 20 41 22 15
Route #3: 1 70 54
Route #4: 92 9 86
Route #5: 66 84 90 68
Route #6: 69 16 55 76
Route #7: 74 13 4
Route #8: 5 12 58
Route #9: 18 10 39
Route #10: 28 42 78 65 25
Route #11: 57 72 36 29 43 45 2 7
Route #12: 14 49 6 37 87
Route #13: 3 77 63
Route #14: 44 67 88 40
Route #15: 82 60 59
Route #16: 8 17
Route #17: 34 64 96 48 26 47 38
Route #18: 21 56 94 80
Route #19: 71 62 99 98 89
Route #20: 23 61 100
Route #21: 27 97 19
Route #22: 81 51 83
Route #23: 52 91 50
Route #24: 79 11 85 30
Route #25: 93 75
Route #26: 24 95 73 53 33 32
